data;

param num_top:=4;

#nodes and edges of the physical network
param n := 10;

set E := (1,2) (1,3) (1,7) (2,4) (2,7) (3,5) (4,8) (5,6) (5,7) (6,7) (6,9) (7,8) (7,9) (8,10) (9,10) ;

#nodes and edges of the virtual networks
set Nl[1] := 4 6 3 2 ;
set Nl[2] := 4 10 3 7 ;
set Nl[3] := 9 6 3 1 ;
set Nl[4] := 6 5 9 2 ;

set El[1] := (4,6) (3,6) (2,3) (2,4) ;
set El[2] := (4,10) (3,10) (3,7) (4,7) ;
set El[3] := (6,9) (3,6) (1,3) (1,9) ;
set El[4] := (5,6) (5,9) (2,9) (2,6) ;
